32 89 29 75 15 77 35 22 39 13 99 69 50 42 92 76 40 68 71 6 20 2 87 26 57 4 93 36 43 58 91 33 78 90 45 54 81 27 44 49 28 17 72 98 63 79 9 25 66 41 5 8 56 88 18 95 0 74 48 1 73 53 51 55 86 70 37 10 19 38 59 96 7 61 65 85 31 34 80 11 67 23 46 64 97 30 82 47 60 62 84 3 21 16 83 24 14 12 94 52 

